(set-logic HORN)
(declare-fun state (Int (Array Int Int) (Array Int Int) (Array Int Int) (Array Int Int) Int Int (Array Int Int) (Array Int Int) Int Int Int Int Int Int Int Int Int Int Int Bool Bool Bool (Array Int Int)) Bool)
(assert (forall ((|hhv_ULTIMATE.start_L-1_0_Int| Int) (|hbv_ULTIMATE.start_ULTIMATE.startENTRY_1_Array_Int_Int| (Array Int Int)) (|hhv_ULTIMATE.start_L-1_2_Array_Int_Int| (Array Int Int)) (|hhv_ULTIMATE.start_L-1_3_Array_Int_Array_Int_Int| (Array Int Int)) (|hhv_ULTIMATE.start_L-1_4_Array_Int_Array_Int_Int| (Array Int Int)) (|hbv_ULTIMATE.start_ULTIMATE.startENTRY_5_Int| Int) (|hhv_ULTIMATE.start_L-1_6_Int| Int) (|hhv_ULTIMATE.start_L-1_7_Array_Int_Int| (Array Int Int)) (|hhv_ULTIMATE.start_L-1_8_Array_Int_Int| (Array Int Int)) (|hbv_ULTIMATE.start_ULTIMATE.startENTRY_9_Int| Int) (|hhv_ULTIMATE.start_L-1_10_Int| Int) (|hhv_ULTIMATE.start_L-1_11_Int| Int) (|hhv_ULTIMATE.start_L-1_12_Int| Int) (|hhv_ULTIMATE.start_L-1_13_Int| Int) (|hhv_ULTIMATE.start_L-1_14_Int| Int) (|hhv_ULTIMATE.start_L-1_15_Int| Int) (|hhv_ULTIMATE.start_L-1_16_Int| Int) (|hhv_ULTIMATE.start_L-1_17_Int| Int) (|hhv_ULTIMATE.start_L-1_18_Int| Int) (|hhv_ULTIMATE.start_L-1_19_Int| Int) (|hhv_ULTIMATE.start_L-1_20_Bool| Bool) (|.loc.3| Bool) (|.loc.4| Bool) (|hbv_ULTIMATE.start_L-1_1_Array_Int_Int| (Array Int Int)) (|.x.95| Int) (|.x.93| (Array Int Int)) (|.x.91| Int) (|.x.89| (Array Int Int)) (|.x.85| Int) (|.x.87| (Array Int Int)) (|.loc.5| Bool) (|.loc.6| Bool) (|.x.99| Int) (|.x.102| Int) (|.x.104| Int) (|.x.98| Int) (|.x.92| (Array Int Int)) (|.x.103| Int) (|.x.88| (Array Int Int)) (|.x.86| (Array Int Int)) (|.x.94| Int) (|.x.90| Int) (|hhv_ULTIMATE.start_ULTIMATE.startEXIT_20_Bool| Bool) (|.x.96| Int) (|.x.97| Int) (|.x.100| Int) (|.x.101| Int) (|.xtv.1| (Array Int Int))) (=> (and (and (not .loc.4) (not .loc.3)) (and (and (and (and (and (= hbv_ULTIMATE.start_ULTIMATE.startENTRY_1_Array_Int_Int hhv_ULTIMATE.start_L-1_2_Array_Int_Int) (not hhv_ULTIMATE.start_L-1_20_Bool)) (= hhv_ULTIMATE.start_L-1_7_Array_Int_Int hhv_ULTIMATE.start_L-1_8_Array_Int_Int)) (= hbv_ULTIMATE.start_ULTIMATE.startENTRY_5_Int hhv_ULTIMATE.start_L-1_6_Int)) (= hhv_ULTIMATE.start_L-1_3_Array_Int_Array_Int_Int hhv_ULTIMATE.start_L-1_4_Array_Int_Array_Int_Int)) (= hbv_ULTIMATE.start_ULTIMATE.startENTRY_9_Int hhv_ULTIMATE.start_L-1_10_Int))) (state |hhv_ULTIMATE.start_L-1_0_Int| |hbv_ULTIMATE.start_ULTIMATE.startENTRY_1_Array_Int_Int| |hhv_ULTIMATE.start_L-1_2_Array_Int_Int| |hhv_ULTIMATE.start_L-1_3_Array_Int_Array_Int_Int| |hhv_ULTIMATE.start_L-1_4_Array_Int_Array_Int_Int| |hbv_ULTIMATE.start_ULTIMATE.startENTRY_5_Int| |hhv_ULTIMATE.start_L-1_6_Int| |hhv_ULTIMATE.start_L-1_7_Array_Int_Int| |hhv_ULTIMATE.start_L-1_8_Array_Int_Int| |hbv_ULTIMATE.start_ULTIMATE.startENTRY_9_Int| |hhv_ULTIMATE.start_L-1_10_Int| |hhv_ULTIMATE.start_L-1_11_Int| |hhv_ULTIMATE.start_L-1_12_Int| |hhv_ULTIMATE.start_L-1_13_Int| |hhv_ULTIMATE.start_L-1_14_Int| |hhv_ULTIMATE.start_L-1_15_Int| |hhv_ULTIMATE.start_L-1_16_Int| |hhv_ULTIMATE.start_L-1_17_Int| |hhv_ULTIMATE.start_L-1_18_Int| |hhv_ULTIMATE.start_L-1_19_Int| |hhv_ULTIMATE.start_L-1_20_Bool| |.loc.3| |.loc.4| |hbv_ULTIMATE.start_L-1_1_Array_Int_Int|))))
(assert (forall ((|hhv_ULTIMATE.start_L-1_0_Int| Int) (|hbv_ULTIMATE.start_ULTIMATE.startENTRY_1_Array_Int_Int| (Array Int Int)) (|hhv_ULTIMATE.start_L-1_2_Array_Int_Int| (Array Int Int)) (|hhv_ULTIMATE.start_L-1_3_Array_Int_Array_Int_Int| (Array Int Int)) (|hhv_ULTIMATE.start_L-1_4_Array_Int_Array_Int_Int| (Array Int Int)) (|hbv_ULTIMATE.start_ULTIMATE.startENTRY_5_Int| Int) (|hhv_ULTIMATE.start_L-1_6_Int| Int) (|hhv_ULTIMATE.start_L-1_7_Array_Int_Int| (Array Int Int)) (|hhv_ULTIMATE.start_L-1_8_Array_Int_Int| (Array Int Int)) (|hbv_ULTIMATE.start_ULTIMATE.startENTRY_9_Int| Int) (|hhv_ULTIMATE.start_L-1_10_Int| Int) (|hhv_ULTIMATE.start_L-1_11_Int| Int) (|hhv_ULTIMATE.start_L-1_12_Int| Int) (|hhv_ULTIMATE.start_L-1_13_Int| Int) (|hhv_ULTIMATE.start_L-1_14_Int| Int) (|hhv_ULTIMATE.start_L-1_15_Int| Int) (|hhv_ULTIMATE.start_L-1_16_Int| Int) (|hhv_ULTIMATE.start_L-1_17_Int| Int) (|hhv_ULTIMATE.start_L-1_18_Int| Int) (|hhv_ULTIMATE.start_L-1_19_Int| Int) (|hhv_ULTIMATE.start_L-1_20_Bool| Bool) (|.loc.3| Bool) (|.loc.4| Bool) (|hbv_ULTIMATE.start_L-1_1_Array_Int_Int| (Array Int Int)) (|.x.95| Int) (|.x.93| (Array Int Int)) (|.x.91| Int) (|.x.89| (Array Int Int)) (|.x.85| Int) (|.x.87| (Array Int Int)) (|.loc.5| Bool) (|.loc.6| Bool) (|.x.99| Int) (|.x.102| Int) (|.x.104| Int) (|.x.98| Int) (|.x.92| (Array Int Int)) (|.x.103| Int) (|.x.88| (Array Int Int)) (|.x.86| (Array Int Int)) (|.x.94| Int) (|.x.90| Int) (|hhv_ULTIMATE.start_ULTIMATE.startEXIT_20_Bool| Bool) (|.x.96| Int) (|.x.97| Int) (|.x.100| Int) (|.x.101| Int) (|.xtv.1| (Array Int Int))) (=> (and (state |hhv_ULTIMATE.start_L-1_0_Int| |hbv_ULTIMATE.start_ULTIMATE.startENTRY_1_Array_Int_Int| |hhv_ULTIMATE.start_L-1_2_Array_Int_Int| |hhv_ULTIMATE.start_L-1_3_Array_Int_Array_Int_Int| |hhv_ULTIMATE.start_L-1_4_Array_Int_Array_Int_Int| |hbv_ULTIMATE.start_ULTIMATE.startENTRY_5_Int| |hhv_ULTIMATE.start_L-1_6_Int| |hhv_ULTIMATE.start_L-1_7_Array_Int_Int| |hhv_ULTIMATE.start_L-1_8_Array_Int_Int| |hbv_ULTIMATE.start_ULTIMATE.startENTRY_9_Int| |hhv_ULTIMATE.start_L-1_10_Int| |hhv_ULTIMATE.start_L-1_11_Int| |hhv_ULTIMATE.start_L-1_12_Int| |hhv_ULTIMATE.start_L-1_13_Int| |hhv_ULTIMATE.start_L-1_14_Int| |hhv_ULTIMATE.start_L-1_15_Int| |hhv_ULTIMATE.start_L-1_16_Int| |hhv_ULTIMATE.start_L-1_17_Int| |hhv_ULTIMATE.start_L-1_18_Int| |hhv_ULTIMATE.start_L-1_19_Int| |hhv_ULTIMATE.start_L-1_20_Bool| |.loc.3| |.loc.4| |hbv_ULTIMATE.start_L-1_1_Array_Int_Int|) (let ((.def_35 (not .loc.3))) (let ((.def_73 (= .x.99 2))) (let ((.def_78 (store hbv_ULTIMATE.start_L-1_1_Array_Int_Int .x.102 1))) (let ((.def_96 (select hhv_ULTIMATE.start_L-1_3_Array_Int_Array_Int_Int .x.102))) (let ((.def_97 (select .def_96 (+ .x.98 4)))) (let ((.def_102 (select .def_96 .x.98))) (let ((.def_135 (and (= (select .def_78 .x.104) 0) (and (not (= .x.104 0)) (and (= .x.98 0) (and (not (= .x.102 0)) (and (= (store (store hhv_ULTIMATE.start_L-1_7_Array_Int_Int .x.102 8) .x.104 8) .x.92) (and (= .def_97 2) (and (= .x.103 0) (and (= (store hhv_ULTIMATE.start_L-1_3_Array_Int_Array_Int_Int .x.104 (store (store (select hhv_ULTIMATE.start_L-1_3_Array_Int_Array_Int_Int .x.104) .x.103 .def_102) (+ .x.103 4) .def_97)) .x.88) (and (= (select hbv_ULTIMATE.start_L-1_1_Array_Int_Int .x.102) 0) (and (= .x.99 (select (select .x.88 .x.104) (+ .x.103 4))) (and (= .def_102 1) (and (= (store .def_78 .x.104 1) .x.86) (and (not (<= .x.85 .x.102)) (not (<= .x.85 .x.104))))))))))))))))) (let ((.def_145 (or hhv_ULTIMATE.start_L-1_20_Bool (and (= hbv_ULTIMATE.start_L-1_1_Array_Int_Int (store hbv_ULTIMATE.start_ULTIMATE.startENTRY_1_Array_Int_Int 0 0)) (and (= .x.94 0) (= .x.90 0)))))) (let ((.def_149 (= hhv_ULTIMATE.start_L-1_11_Int .x.96))) (let ((.def_172 (= hhv_ULTIMATE.start_L-1_20_Bool hhv_ULTIMATE.start_ULTIMATE.startEXIT_20_Bool))) (let ((.def_188 (not .loc.6))) (and (and (not .loc.4) (and (= hhv_ULTIMATE.start_L-1_10_Int .x.95) (and (= hhv_ULTIMATE.start_L-1_8_Array_Int_Int .x.93) (and (= hhv_ULTIMATE.start_L-1_6_Int .x.91) (and (= hhv_ULTIMATE.start_L-1_4_Array_Int_Array_Int_Int .x.89) (and (= hhv_ULTIMATE.start_L-1_0_Int .x.85) (= hhv_ULTIMATE.start_L-1_2_Array_Int_Int .x.87))))))) (or (or (and (and (not .loc.5) .loc.6) (or (and .def_35 (and (or hhv_ULTIMATE.start_L-1_20_Bool (not .def_73)) (and (or hhv_ULTIMATE.start_L-1_20_Bool .def_135) (and (and .def_145 hhv_ULTIMATE.start_ULTIMATE.startEXIT_20_Bool) .def_149)))) (and (or hhv_ULTIMATE.start_L-1_20_Bool (and (= .x.86 (store (store hbv_ULTIMATE.start_ULTIMATE.startENTRY_1_Array_Int_Int hhv_ULTIMATE.start_L-1_17_Int 0) hhv_ULTIMATE.start_L-1_19_Int 0)) (= .x.97 0))) (and (= hhv_ULTIMATE.start_L-1_3_Array_Int_Array_Int_Int .x.88) (and (= hbv_ULTIMATE.start_ULTIMATE.startENTRY_5_Int .x.90) (and (= hhv_ULTIMATE.start_L-1_7_Array_Int_Int .x.92) (and (= hbv_ULTIMATE.start_ULTIMATE.startENTRY_9_Int .x.94) (and (= hhv_ULTIMATE.start_L-1_15_Int .x.100) (and (= hhv_ULTIMATE.start_L-1_16_Int .x.101) (and (and .loc.3 (or hhv_ULTIMATE.start_ULTIMATE.startEXIT_20_Bool (= .x.96 .x.97))) .def_172)))))))))) (and (and .loc.5 (and .def_35 (and .def_149 (and .def_145 (and hhv_ULTIMATE.start_L-1_20_Bool hhv_ULTIMATE.start_ULTIMATE.startEXIT_20_Bool))))) .def_188)) (and (or .def_135 hhv_ULTIMATE.start_ULTIMATE.startEXIT_20_Bool) (and (or .def_73 hhv_ULTIMATE.start_ULTIMATE.startEXIT_20_Bool) (and .def_188 (and .def_172 (and .loc.5 (and .def_35 (and .def_145 .def_149))))))))))))))))))))) (state |.x.85| |.x.86| |.x.87| |.x.88| |.x.89| |.x.90| |.x.91| |.x.92| |.x.93| |.x.94| |.x.95| |.x.96| |.x.97| |.x.98| |.x.99| |.x.100| |.x.101| |.x.102| |.x.103| |.x.104| |hhv_ULTIMATE.start_ULTIMATE.startEXIT_20_Bool| |.loc.5| |.loc.6| |.xtv.1|))))
(assert (forall ((|hhv_ULTIMATE.start_L-1_0_Int| Int) (|hbv_ULTIMATE.start_ULTIMATE.startENTRY_1_Array_Int_Int| (Array Int Int)) (|hhv_ULTIMATE.start_L-1_2_Array_Int_Int| (Array Int Int)) (|hhv_ULTIMATE.start_L-1_3_Array_Int_Array_Int_Int| (Array Int Int)) (|hhv_ULTIMATE.start_L-1_4_Array_Int_Array_Int_Int| (Array Int Int)) (|hbv_ULTIMATE.start_ULTIMATE.startENTRY_5_Int| Int) (|hhv_ULTIMATE.start_L-1_6_Int| Int) (|hhv_ULTIMATE.start_L-1_7_Array_Int_Int| (Array Int Int)) (|hhv_ULTIMATE.start_L-1_8_Array_Int_Int| (Array Int Int)) (|hbv_ULTIMATE.start_ULTIMATE.startENTRY_9_Int| Int) (|hhv_ULTIMATE.start_L-1_10_Int| Int) (|hhv_ULTIMATE.start_L-1_11_Int| Int) (|hhv_ULTIMATE.start_L-1_12_Int| Int) (|hhv_ULTIMATE.start_L-1_13_Int| Int) (|hhv_ULTIMATE.start_L-1_14_Int| Int) (|hhv_ULTIMATE.start_L-1_15_Int| Int) (|hhv_ULTIMATE.start_L-1_16_Int| Int) (|hhv_ULTIMATE.start_L-1_17_Int| Int) (|hhv_ULTIMATE.start_L-1_18_Int| Int) (|hhv_ULTIMATE.start_L-1_19_Int| Int) (|hhv_ULTIMATE.start_L-1_20_Bool| Bool) (|.loc.3| Bool) (|.loc.4| Bool) (|hbv_ULTIMATE.start_L-1_1_Array_Int_Int| (Array Int Int)) (|.x.95| Int) (|.x.93| (Array Int Int)) (|.x.91| Int) (|.x.89| (Array Int Int)) (|.x.85| Int) (|.x.87| (Array Int Int)) (|.loc.5| Bool) (|.loc.6| Bool) (|.x.99| Int) (|.x.102| Int) (|.x.104| Int) (|.x.98| Int) (|.x.92| (Array Int Int)) (|.x.103| Int) (|.x.88| (Array Int Int)) (|.x.86| (Array Int Int)) (|.x.94| Int) (|.x.90| Int) (|hhv_ULTIMATE.start_ULTIMATE.startEXIT_20_Bool| Bool) (|.x.96| Int) (|.x.97| Int) (|.x.100| Int) (|.x.101| Int) (|.xtv.1| (Array Int Int))) (=> (state |hhv_ULTIMATE.start_L-1_0_Int| |hbv_ULTIMATE.start_ULTIMATE.startENTRY_1_Array_Int_Int| |hhv_ULTIMATE.start_L-1_2_Array_Int_Int| |hhv_ULTIMATE.start_L-1_3_Array_Int_Array_Int_Int| |hhv_ULTIMATE.start_L-1_4_Array_Int_Array_Int_Int| |hbv_ULTIMATE.start_ULTIMATE.startENTRY_5_Int| |hhv_ULTIMATE.start_L-1_6_Int| |hhv_ULTIMATE.start_L-1_7_Array_Int_Int| |hhv_ULTIMATE.start_L-1_8_Array_Int_Int| |hbv_ULTIMATE.start_ULTIMATE.startENTRY_9_Int| |hhv_ULTIMATE.start_L-1_10_Int| |hhv_ULTIMATE.start_L-1_11_Int| |hhv_ULTIMATE.start_L-1_12_Int| |hhv_ULTIMATE.start_L-1_13_Int| |hhv_ULTIMATE.start_L-1_14_Int| |hhv_ULTIMATE.start_L-1_15_Int| |hhv_ULTIMATE.start_L-1_16_Int| |hhv_ULTIMATE.start_L-1_17_Int| |hhv_ULTIMATE.start_L-1_18_Int| |hhv_ULTIMATE.start_L-1_19_Int| |hhv_ULTIMATE.start_L-1_20_Bool| |.loc.3| |.loc.4| |hbv_ULTIMATE.start_L-1_1_Array_Int_Int|) (not (and hhv_ULTIMATE.start_L-1_20_Bool (and .loc.4 (not .loc.3)))))))
(check-sat)
